33D32945 STP File, STP Format Version 1.0

SECTION Comments
Name  	"W3_all"
Creator	"Daisy Jørgensen"
Problem	"3-dimensional Geometric Steiner Minimum Tree"
Remark	"Converted automatically."
END

SECTION Graph
Nodes 862
END

SECTION Coordinates
DDD 1 -4.79 -12.46 -12.85
DDD 2 -3.91 -11.56 -12.12
DDD 3 -4.62 -10.94 -10.92
DDD 4 -5.74 -10.45 -11.06
DDD 5 -3.39 -10.45 -13.04
DDD 6 -2.34 -10.91 -14.04
DDD 7 -0.71 -11.12 -13.29
DDD 8 0.32 -10.29 -14.50
DDD 9 -3.11 -12.06 -11.79
DDD 10 -2.98 -9.73 -12.47
DDD 11 -4.16 -10.07 -13.54
DDD 12 -2.24 -10.24 -14.77
DDD 13 -2.60 -11.80 -14.43
DDD 14 1.11 -9.88 -14.04
DDD 15 0.64 -10.96 -15.18
DDD 16 -0.21 -9.58 -14.96
DDD 17 -5.31 -11.94 -13.53
DDD 18 -4.24 -13.16 -13.32
DDD 19 -5.42 -12.90 -12.21
DDD 20 -3.96 -10.99 -9.76
DDD 21 -4.53 -10.43 -8.54
DDD 22 -3.49 -9.64 -7.75
DDD 23 -2.45 -10.19 -7.40
DDD 24 -5.11 -11.55 -7.66
DDD 25 -4.07 -12.54 -7.16
DDD 26 -3.57 -13.46 -8.25
DDD 27 -4.10 -13.48 -9.36
DDD 28 -2.53 -14.24 -7.94
DDD 29 -3.06 -11.40 -9.71
DDD 30 -5.29 -9.83 -8.77
DDD 31 -5.79 -12.05 -8.20
DDD 32 -5.55 -11.13 -6.87
DDD 33 -4.48 -13.09 -6.43
DDD 34 -3.29 -12.03 -6.79
DDD 35 -2.00 -14.06 -7.11
DDD 36 -2.29 -15.00 -8.54
DDD 37 -3.80 -8.37 -7.50
DDD 38 -2.89 -7.51 -6.75
DDD 39 -3.06 -7.69 -5.25
DDD 40 -4.17 -7.53 -4.74
DDD 41 -3.12 -6.04 -7.13
DDD 42 -2.17 -5.52 -8.19
DDD 43 -2.07 -6.15 -9.42
DDD 44 -1.37 -4.41 -7.95
DDD 45 -1.20 -5.69 -10.39
DDD 46 -0.50 -3.93 -8.90
DDD 47 -0.42 -4.58 -10.14
DDD 48 0.45 -4.11 -11.10
DDD 49 -4.66 -7.98 -7.81
DDD 50 -1.94 -7.73 -7.00
DDD 51 -3.01 -5.48 -6.31
DDD 52 -4.05 -5.95 -7.48
DDD 53 -2.63 -6.95 -9.61
DDD 54 -1.43 -3.95 -7.06
DDD 55 -1.14 -6.15 -11.28
DDD 56 0.07 -3.13 -8.72
DDD 57 1.30 -4.63 -11.06
DDD 58 -1.97 -8.01 -4.57
DDD 59 -1.99 -8.21 -3.13
DDD 60 -1.03 -7.26 -2.42
DDD 61 0.14 -7.20 -2.78
DDD 62 -1.64 -9.66 -2.78
DDD 63 -1.86 -10.02 -1.32
DDD 64 -3.34 -10.22 -1.02
DDD 65 -3.59 -10.35 0.47
DDD 66 -3.17 -9.12 1.21
DDD 67 -1.09 -8.13 -5.04
DDD 68 -2.92 -8.05 -2.78
DDD 69 -0.67 -9.81 -2.99
DDD 70 -2.20 -10.26 -3.34
DDD 71 -1.51 -9.29 -0.74
DDD 72 -1.37 -10.87 -1.12
DDD 73 -3.66 -11.05 -1.48
DDD 74 -3.85 -9.43 -1.37
DDD 75 -3.07 -11.13 0.82
DDD 76 -4.57 -10.50 0.62
DDD 77 -2.60 -8.56 0.62
DDD 78 -3.99 -8.60 1.48
DDD 79 -2.66 -9.39 2.03
DDD 80 -1.55 -6.53 -1.43
DDD 81 -0.74 -5.58 -0.68
DDD 82 -0.80 -5.88 0.82
DDD 83 -1.89 -6.08 1.36
DDD 84 -1.21 -4.15 -0.94
DDD 85 -0.55 -3.06 -0.10
DDD 86 -1.19 -1.71 -0.37
DDD 87 -0.70 -3.36 1.39
DDD 88 -2.52 -6.62 -1.19
DDD 89 0.21 -5.64 -0.98
DDD 90 -2.20 -4.12 -0.77
DDD 91 -1.04 -3.94 -1.90
DDD 92 0.42 -3.01 -0.32
DDD 93 -1.53 -1.68 -1.32
DDD 94 -1.96 -1.57 0.26
DDD 95 -0.52 -0.98 -0.24
DDD 96 -1.39 -4.07 1.52
DDD 97 0.18 -3.68 1.75
DDD 98 -0.98 -2.53 1.87
DDD 99 0.37 -5.91 1.46
DDD 100 0.46 -6.19 2.88
DDD 101 0.91 -4.95 3.66
DDD 102 1.91 -4.34 3.28
DDD 103 1.42 -7.36 3.15
DDD 104 0.89 -8.64 2.52
DDD 105 2.79 -7.06 2.57
DDD 106 1.22 -5.75 0.96
DDD 107 -0.44 -6.46 3.23
DDD 108 1.51 -7.49 4.14
DDD 109 1.61 -9.33 2.53
DDD 110 0.10 -8.96 3.04
DDD 111 0.62 -8.45 1.58
DDD 112 3.19 -7.91 2.22
DDD 113 2.70 -6.40 1.82
DDD 114 3.38 -6.68 3.28
DDD 115 0.18 -4.62 4.71
DDD 116 0.50 -3.46 5.53
DDD 117 1.14 -3.88 6.86
DDD 118 0.47 -4.50 7.68
DDD 119 -0.76 -2.61 5.80
DDD 120 -1.75 -2.74 4.64
DDD 121 -0.39 -1.15 5.96
DDD 122 -3.00 -1.91 4.81
DDD 123 -0.63 -5.16 4.97
DDD 124 1.15 -2.87 5.04
DDD 125 -1.19 -2.93 6.65
DDD 126 -2.01 -3.70 4.57
DDD 127 -1.28 -2.46 3.80
DDD 128 0.15 -0.85 5.17
DDD 129 -1.23 -0.60 6.02
DDD 130 0.14 -1.02 6.80
DDD 131 -3.75 -2.49 5.12
DDD 132 -2.83 -1.19 5.48
DDD 133 -3.24 -1.50 3.93
DDD 134 2.41 -3.53 7.03
DDD 135 3.13 -3.88 8.25
DDD 136 3.78 -2.64 8.87
DDD 137 4.05 -1.68 8.16
DDD 138 4.20 -4.93 7.96
DDD 139 3.60 -6.28 7.59
DDD 140 3.68 -7.24 8.35
DDD 141 3.00 -6.35 6.40
DDD 142 2.90 -3.02 6.33
DDD 143 2.50 -4.28 8.91
DDD 144 4.77 -5.05 8.78
DDD 145 4.77 -4.61 7.20
DDD 146 2.25 -5.73 6.18
DDD 147 3.30 -7.03 5.73
DDD 148 4.00 -2.70 10.18
DDD 149 4.61 -1.58 10.87
DDD 150 4.47 -1.68 12.38
DDD 151 4.23 -2.77 12.89
DDD 152 3.76 -3.51 10.72
DDD 153 4.18 -0.73 10.57
DDD 154 5.59 -1.55 10.65
DDD 155 4.62 -0.55 13.07
DDD 156 4.51 -0.51 14.52
DDD 157 3.12 -0.06 14.95
DDD 158 2.71 -0.34 16.08
DDD 159 5.57 0.41 15.12
DDD 160 5.30 0.82 16.56
DDD 161 6.52 0.59 17.43
DDD 162 7.37 1.85 17.52
DDD 163 8.68 1.67 16.83
DDD 164 4.81 0.31 12.59
DDD 165 4.67 -1.43 14.89
DDD 166 5.61 1.24 14.56
DDD 167 6.45 -0.06 15.08
DDD 168 4.54 0.27 16.91
DDD 169 5.05 1.79 16.58
DDD 170 7.06 -0.15 17.05
DDD 171 6.21 0.35 18.35
DDD 172 7.54 2.06 18.48
DDD 173 6.88 2.60 17.09
DDD 174 9.19 0.92 17.26
DDD 175 8.52 1.45 15.86
DDD 176 9.21 2.52 16.89
DDD 177 2.42 0.63 14.06
DDD 178 1.08 1.12 14.35
DDD 179 0.13 0.86 13.18
DDD 180 -1.06 1.17 13.28
DDD 181 1.11 2.62 14.67
DDD 182 1.71 2.82 15.95
DDD 183 -0.30 3.19 14.69
DDD 184 2.80 0.82 13.15
DDD 185 0.72 0.65 15.15
DDD 186 1.64 3.09 13.96
DDD 187 1.71 3.80 16.17
DDD 188 -0.69 3.15 13.77
DDD 189 -0.87 2.66 15.32
DDD 190 -0.27 4.14 15.00
DDD 191 0.67 0.30 12.10
DDD 192 -0.13 -0.00 10.91
DDD 193 0.03 -1.46 10.50
DDD 194 1.03 -1.82 9.88
DDD 195 0.28 0.91 9.75
DDD 196 -0.06 2.39 9.91
DDD 197 0.72 3.23 8.90
DDD 198 -1.54 2.63 9.68
DDD 199 1.64 0.07 12.08
DDD 200 -1.09 0.18 11.10
DDD 201 -0.18 0.58 8.93
DDD 202 1.27 0.83 9.63
DDD 203 0.18 2.69 10.83
DDD 204 0.27 4.11 8.78
DDD 205 1.65 3.37 9.24
DDD 206 0.75 2.75 8.02
DDD 207 -2.07 1.88 10.07
DDD 208 -1.81 3.49 10.12
DDD 209 -1.72 2.69 8.69
DDD 210 -0.96 -2.28 10.86
DDD 211 -0.94 -3.70 10.53
DDD 212 -2.28 -4.15 9.96
DDD 213 -3.32 -3.90 10.57
DDD 214 -0.60 -4.53 11.77
DDD 215 0.82 -4.32 12.28
DDD 216 1.02 -2.89 12.76
DDD 217 0.57 -2.72 14.20
DDD 218 -0.88 -3.01 14.36
DDD 219 -1.75 -1.93 11.37
DDD 220 -0.23 -3.87 9.85
DDD 221 -0.70 -5.50 11.53
DDD 222 -1.24 -4.29 12.50
DDD 223 1.47 -4.51 11.54
DDD 224 0.99 -4.95 13.04
DDD 225 0.50 -2.27 12.18
DDD 226 2.00 -2.66 12.70
DDD 227 0.75 -1.78 14.48
DDD 228 1.09 -3.35 14.78
DDD 229 -1.34 -2.21 14.75
DDD 230 -1.28 -3.23 13.47
DDD 231 -1.00 -3.79 14.98
DDD 232 -2.23 -4.81 8.80
DDD 233 -3.45 -5.28 8.17
DDD 234 -3.21 -5.80 6.77
DDD 235 -2.13 -5.59 6.22
DDD 236 -1.36 -4.99 8.35
DDD 237 -4.11 -4.53 8.12
DDD 238 -3.84 -6.03 8.72
DDD 239 -4.21 -6.48 6.21
DDD 240 -4.11 -7.03 4.86
DDD 241 -5.01 -6.28 3.89
DDD 242 -6.03 -5.73 4.31
DDD 243 -4.46 -8.52 4.86
DDD 244 -5.75 -8.85 5.60
DDD 245 -5.51 -9.28 7.03
DDD 246 -4.45 -8.92 7.59
DDD 247 -6.38 -9.96 7.60
DDD 248 -5.07 -6.62 6.70
DDD 249 -3.16 -6.95 4.55
DDD 250 -3.71 -9.02 5.30
DDD 251 -4.55 -8.82 3.91
DDD 252 -6.21 -9.59 5.12
DDD 253 -6.34 -8.04 5.60
DDD 254 -4.62 -6.27 2.62
DDD 255 -5.40 -5.59 1.59
DDD 256 -5.28 -6.31 0.25
DDD 257 -4.24 -6.89 -0.04
DDD 258 -4.93 -4.13 1.43
DDD 259 -4.76 -3.54 2.73
DDD 260 -5.95 -3.32 0.65
DDD 261 -3.78 -6.73 2.34
DDD 262 -6.36 -5.56 1.85
DDD 263 -4.06 -4.12 0.94
DDD 264 -5.34 -4.02 3.39
DDD 265 -5.55 -3.00 -0.20
DDD 266 -6.75 -3.90 0.45
DDD 267 -6.25 -2.54 1.20
DDD 268 -6.35 -6.26 -0.54
DDD 269 -6.38 -6.91 -1.84
DDD 270 -7.20 -6.11 -2.84
DDD 271 -8.34 -5.76 -2.54
DDD 272 -6.94 -8.34 -1.73
DDD 273 -6.23 -9.21 -2.61
DDD 274 -8.42 -8.37 -2.10
DDD 275 -7.18 -5.77 -0.25
DDD 276 -5.45 -6.99 -2.19
DDD 277 -6.84 -8.65 -0.78
DDD 278 -5.99 -10.06 -2.12
DDD 279 -8.52 -8.19 -3.08
DDD 280 -8.80 -9.26 -1.88
DDD 281 -8.90 -7.66 -1.59
DDD 282 -6.62 -5.84 -4.00
DDD 283 -7.30 -5.08 -5.05
DDD 284 -6.45 -5.00 -6.31
DDD 285 -5.22 -5.02 -6.22
DDD 286 -7.64 -3.66 -4.55
DDD 287 -8.39 -3.75 -3.33
DDD 288 -8.47 -2.92 -5.58
DDD 289 -5.69 -6.16 -4.19
DDD 290 -8.16 -5.53 -5.27
DDD 291 -6.79 -3.16 -4.40
DDD 292 -7.84 -3.38 -2.58
DDD 293 -9.41 -3.28 -5.58
DDD 294 -8.49 -1.95 -5.36
DDD 295 -8.07 -3.05 -6.49
DDD 296 -7.11 -4.90 -7.46
DDD 297 -6.42 -4.81 -8.74
DDD 298 -6.17 -3.36 -9.14
DDD 299 -7.13 -2.58 -9.20
DDD 300 -7.22 -5.52 -9.83
DDD 301 -8.03 -6.71 -9.34
DDD 302 -8.55 -7.55 -10.50
DDD 303 -9.77 -8.36 -10.09
DDD 304 -10.94 -7.49 -9.80
DDD 305 -8.11 -4.89 -7.47
DDD 306 -5.54 -5.28 -8.67
DDD 307 -6.58 -5.85 -10.53
DDD 308 -7.85 -4.86 -10.24
DDD 309 -8.80 -6.38 -8.80
DDD 310 -7.45 -7.28 -8.76
DDD 311 -7.83 -8.17 -10.80
DDD 312 -8.80 -6.94 -11.25
DDD 313 -9.54 -8.88 -9.27
DDD 314 -10.00 -8.99 -10.83
DDD 315 -10.65 -6.54 -9.74
DDD 316 -11.61 -7.58 -10.54
DDD 317 -11.36 -7.77 -8.93
DDD 318 -4.91 -3.03 -9.39
DDD 319 -4.54 -1.67 -9.78
DDD 320 -3.44 -1.68 -10.84
DDD 321 -2.35 -2.18 -10.57
DDD 322 -4.09 -0.87 -8.57
DDD 323 -4.18 -3.71 -9.32
DDD 324 -5.34 -1.20 -10.16
DDD 325 -3.17 -1.16 -8.31
DDD 326 -4.09 0.10 -8.79
DDD 327 -4.72 -1.04 -7.81
DDD 328 -3.75 -1.13 -12.01
DDD 329 -2.79 -1.08 -13.10
DDD 330 -2.20 0.32 -13.25
DDD 331 -2.26 0.89 -14.34
DDD 332 -3.45 -1.51 -14.42
DDD 333 -2.39 -1.73 -15.50
DDD 334 -4.22 -2.81 -14.23
DDD 335 -4.66 -0.74 -12.17
DDD 336 -2.04 -1.72 -12.92
DDD 337 -4.08 -0.80 -14.72
DDD 338 -1.81 -0.93 -15.56
DDD 339 -1.84 -2.53 -15.26
DDD 340 -2.84 -1.89 -16.38
DDD 341 -4.63 -3.08 -15.10
DDD 342 -3.60 -3.52 -13.92
DDD 343 -4.94 -2.67 -13.55
DDD 344 -1.65 0.85 -12.16
DDD 345 -1.05 2.18 -12.17
DDD 346 -0.42 2.50 -10.82
DDD 347 -1.14 2.75 -9.86
DDD 348 -2.10 3.23 -12.52
DDD 349 -1.49 4.60 -12.77
DDD 350 -2.06 5.36 -13.58
DDD 351 -0.44 4.90 -12.16
DDD 352 -1.63 0.33 -11.30
DDD 353 -0.34 2.22 -12.87
DDD 354 -2.75 3.31 -11.76
DDD 355 -2.58 2.94 -13.34
DDD 356 0.91 2.49 -10.78
DDD 357 1.64 2.78 -9.55
DDD 358 1.26 4.15 -9.00
DDD 359 1.14 4.30 -7.78
DDD 360 3.14 2.72 -9.80
DDD 361 1.45 2.28 -11.60
DDD 362 1.43 2.09 -8.86
DDD 363 3.36 3.20 -10.65
DDD 364 3.62 3.16 -9.04
DDD 365 3.43 1.77 -9.86
DDD 366 1.09 5.12 -9.89
DDD 367 0.72 6.47 -9.50
DDD 368 -0.60 6.49 -8.73
DDD 369 -0.65 7.01 -7.62
DDD 370 0.62 7.38 -10.72
DDD 371 1.89 7.47 -11.54
DDD 372 1.90 8.64 -12.51
DDD 373 2.48 9.69 -12.16
DDD 374 1.31 8.50 -13.60
DDD 375 1.20 4.94 -10.87
DDD 376 1.43 6.85 -8.91
DDD 377 0.39 8.31 -10.41
DDD 378 -0.11 7.04 -11.31
DDD 379 1.99 6.62 -12.07
DDD 380 2.67 7.56 -10.92
DDD 381 -1.63 5.91 -9.33
DDD 382 -2.95 5.86 -8.71
DDD 383 -2.89 5.13 -7.37
DDD 384 -3.55 5.56 -6.42
DDD 385 -3.96 5.16 -9.64
DDD 386 -3.56 3.81 -9.86
DDD 387 -4.03 5.88 -10.98
DDD 388 -1.53 5.50 -10.24
DDD 389 -3.29 6.79 -8.55
DDD 390 -4.86 5.19 -9.21
DDD 391 -3.74 3.27 -9.04
DDD 392 -3.32 5.52 -11.59
DDD 393 -4.93 5.73 -11.39
DDD 394 -3.89 6.86 -10.84
DDD 395 -2.12 4.05 -7.32
DDD 396 -1.98 3.27 -6.10
DDD 397 -1.37 4.10 -4.97
DDD 398 -1.87 4.05 -3.85
DDD 399 -1.13 2.03 -6.35
DDD 400 -1.62 3.75 -8.13
DDD 401 -2.88 2.94 -5.80
DDD 402 -1.03 1.89 -7.34
DDD 403 -0.22 2.17 -5.94
DDD 404 -1.56 1.23 -5.94
DDD 405 -0.31 4.83 -5.30
DDD 406 0.36 5.68 -4.31
DDD 407 -0.54 6.82 -3.86
DDD 408 -0.49 7.19 -2.68
DDD 409 1.66 6.24 -4.89
DDD 410 2.64 6.74 -3.84
DDD 411 3.71 7.64 -4.43
DDD 412 4.17 7.36 -5.55
DDD 413 4.08 8.63 -3.76
DDD 414 0.05 4.83 -6.23
DDD 415 0.61 5.12 -3.52
DDD 416 1.43 6.99 -5.50
DDD 417 2.11 5.51 -5.41
DDD 418 3.08 5.96 -3.41
DDD 419 2.13 7.26 -3.15
DDD 420 -1.34 7.34 -4.78
DDD 421 -2.25 8.44 -4.47
DDD 422 -3.31 8.01 -3.47
DDD 423 -3.62 8.77 -2.55
DDD 424 -2.91 8.96 -5.75
DDD 425 -3.91 10.08 -5.51
DDD 426 -4.05 10.97 -6.74
DDD 427 -5.40 11.66 -6.77
DDD 428 -5.62 12.49 -5.55
DDD 429 -1.33 6.99 -5.72
DDD 430 -1.73 9.20 -4.08
DDD 431 -3.39 8.20 -6.19
DDD 432 -2.19 9.30 -6.36
DDD 433 -3.60 10.64 -4.74
DDD 434 -4.80 9.68 -5.30
DDD 435 -3.96 10.40 -7.56
DDD 436 -3.33 11.66 -6.73
DDD 437 -6.12 10.97 -6.83
DDD 438 -5.44 12.25 -7.58
DDD 439 -5.38 11.96 -4.74
DDD 440 -5.06 13.31 -5.60
DDD 441 -6.59 12.75 -5.50
DDD 442 -3.85 6.81 -3.66
DDD 443 -4.88 6.28 -2.78
DDD 444 -4.29 5.90 -1.42
DDD 445 -4.86 6.26 -0.39
DDD 446 -5.56 5.08 -3.41
DDD 447 -3.56 6.24 -4.43
DDD 448 -5.58 6.97 -2.63
DDD 449 -6.36 4.83 -2.87
DDD 450 -5.83 5.30 -4.34
DDD 451 -4.92 4.30 -3.43
DDD 452 -3.18 5.18 -1.45
DDD 453 -2.52 4.74 -0.22
DDD 454 -2.21 5.93 0.69
DDD 455 -2.60 5.91 1.86
DDD 456 -1.22 3.99 -0.54
DDD 457 -1.44 2.73 -1.33
DDD 458 -0.86 2.56 -2.57
DDD 459 -2.23 1.71 -0.82
DDD 460 -1.06 1.40 -3.30
DDD 461 -2.42 0.55 -1.55
DDD 462 -1.84 0.39 -2.78
DDD 463 -2.76 4.91 -2.32
DDD 464 -3.11 4.11 0.27
DDD 465 -0.78 3.76 0.32
DDD 466 -0.63 4.60 -1.07
DDD 467 -0.29 3.29 -2.95
DDD 468 -2.65 1.81 0.07
DDD 469 -0.63 1.29 -4.20
DDD 470 -2.99 -0.18 -1.17
DDD 471 -1.99 -0.45 -3.30
DDD 472 -1.53 6.93 0.14
DDD 473 -1.17 8.12 0.90
DDD 474 -2.41 8.88 1.36
DDD 475 -2.41 9.45 2.45
DDD 476 -0.27 9.04 0.07
DDD 477 0.93 8.35 -0.54
DDD 478 2.04 9.34 -0.86
DDD 479 1.67 10.20 -2.06
DDD 480 1.85 9.46 -3.35
DDD 481 -1.24 6.88 -0.81
DDD 482 -0.64 7.85 1.71
DDD 483 0.05 9.78 0.66
DDD 484 -0.82 9.43 -0.67
DDD 485 0.65 7.89 -1.38
DDD 486 1.28 7.67 0.11
DDD 487 2.88 8.84 -1.06
DDD 488 2.18 9.93 -0.07
DDD 489 2.26 11.01 -2.07
DDD 490 0.72 10.48 -1.98
DDD 491 2.34 10.05 -4.00
DDD 492 2.39 8.63 -3.18
DDD 493 0.96 9.22 -3.72
DDD 494 -3.44 8.87 0.52
DDD 495 -4.69 9.55 0.83
DDD 496 -5.37 8.93 2.05
DDD 497 -5.84 9.67 2.92
DDD 498 -5.64 9.51 -0.37
DDD 499 -7.02 10.10 -0.09
DDD 500 -7.88 10.17 -1.33
DDD 501 -8.93 9.54 -1.41
DDD 502 -7.44 10.95 -2.31
DDD 503 -3.39 8.38 -0.35
DDD 504 -4.51 10.52 1.03
DDD 505 -5.76 8.56 -0.64
DDD 506 -5.22 10.03 -1.11
DDD 507 -6.90 11.03 0.28
DDD 508 -7.48 9.53 0.59
DDD 509 -7.97 11.03 -3.16
DDD 510 -6.59 11.46 -2.20
DDD 511 -5.41 7.61 2.09
DDD 512 -6.02 6.89 3.20
DDD 513 -5.29 7.16 4.51
DDD 514 -5.94 7.37 5.54
DDD 515 -6.05 5.39 2.93
DDD 516 -7.27 4.93 2.15
DDD 517 -7.15 4.48 0.84
DDD 518 -8.53 4.95 2.73
DDD 519 -8.25 4.06 0.13
DDD 520 -9.65 4.53 2.03
DDD 521 -9.50 4.09 0.72
DDD 522 -10.60 3.67 0.01
DDD 523 -5.01 7.06 1.36
DDD 524 -6.97 7.19 3.30
DDD 525 -6.04 4.91 3.80
DDD 526 -5.23 5.15 2.40
DDD 527 -6.25 4.46 0.41
DDD 528 -8.63 5.27 3.67
DDD 529 -8.15 3.74 -0.82
DDD 530 -10.55 4.55 2.46
DDD 531 -10.52 2.69 -0.19
DDD 532 -3.96 7.16 4.45
DDD 533 -3.14 7.41 5.63
DDD 534 -3.36 8.82 6.17
DDD 535 -3.41 9.00 7.39
DDD 536 -1.67 7.20 5.31
DDD 537 -3.49 6.99 3.59
DDD 538 -3.38 6.75 6.35
DDD 539 -1.49 7.49 4.37
DDD 540 -1.11 7.75 5.94
DDD 541 -1.44 6.24 5.41
DDD 542 -3.49 9.78 5.26
DDD 543 -3.70 11.17 5.65
DDD 544 -5.07 11.36 6.30
DDD 545 -5.18 12.14 7.25
DDD 546 -3.58 12.09 4.43
DDD 547 -2.14 12.23 3.95
DDD 548 -1.26 12.61 4.72
DDD 549 -1.91 11.93 2.68
DDD 550 -3.44 9.57 4.29
DDD 551 -3.00 11.45 6.30
DDD 552 -3.93 13.00 4.68
DDD 553 -4.13 11.71 3.69
DDD 554 -2.33 11.12 2.28
DDD 555 -1.32 12.52 2.12
DDD 556 -6.07 10.65 5.79
DDD 557 -7.42 10.74 6.32
DDD 558 -7.50 10.17 7.73
DDD 559 -8.17 10.75 8.58
DDD 560 -8.41 10.00 5.41
DDD 561 -8.80 10.82 4.20
DDD 562 -9.72 10.40 3.46
DDD 563 -8.20 11.90 3.98
DDD 564 -5.91 10.04 5.01
DDD 565 -7.71 11.70 6.35
DDD 566 -9.23 9.79 5.93
DDD 567 -7.98 9.16 5.09
DDD 568 -6.81 9.05 7.95
DDD 569 -6.80 8.41 9.26
DDD 570 -5.97 9.20 10.26
DDD 571 -6.34 9.26 11.43
DDD 572 -6.24 6.98 9.15
DDD 573 -6.47 6.17 10.41
DDD 574 -5.59 5.43 10.84
DDD 575 -7.65 6.31 11.00
DDD 576 -6.28 8.63 7.22
DDD 577 -7.73 8.33 9.60
DDD 578 -5.26 7.03 8.96
DDD 579 -6.70 6.52 8.38
DDD 580 -7.75 6.95 11.76
DDD 581 -8.43 5.77 10.69
DDD 582 -4.88 9.80 9.79
DDD 583 -4.03 10.58 10.66
DDD 584 -2.83 9.80 11.15
DDD 585 -2.46 9.93 12.32
DDD 586 -4.63 9.72 8.82
DDD 587 -4.56 10.88 11.45
DDD 588 -3.70 11.38 10.16
DDD 589 -2.24 9.00 10.27
DDD 590 -1.08 8.20 10.62
DDD 591 0.06 8.40 9.63
DDD 592 -0.16 8.99 8.57
DDD 593 -1.45 6.71 10.69
DDD 594 -1.66 6.14 9.30
DDD 595 -0.35 5.91 11.38
DDD 596 -2.58 8.94 9.33
DDD 597 -0.75 8.46 11.53
DDD 598 -2.30 6.61 11.22
DDD 599 -1.03 5.38 9.15
DDD 600 -2.60 5.83 9.20
DDD 601 -1.48 6.86 8.62
DDD 602 -0.76 5.21 11.96
DDD 603 0.23 5.47 10.68
DDD 604 0.21 6.53 11.93
DDD 605 1.25 7.91 9.98
DDD 606 2.41 8.04 9.11
DDD 607 2.89 6.67 8.63
DDD 608 2.99 5.75 9.43
DDD 609 3.55 8.76 9.85
DDD 610 3.38 10.27 9.84
DDD 611 3.83 10.91 8.87
DDD 612 2.80 10.80 10.81
DDD 613 1.36 7.44 10.85
DDD 614 2.18 8.60 8.32
DDD 615 4.41 8.53 9.40
DDD 616 3.57 8.44 10.80
DDD 617 3.17 6.58 7.33
DDD 618 3.64 5.32 6.77
DDD 619 4.14 5.48 5.35
DDD 620 3.88 6.51 4.72
DDD 621 3.07 7.36 6.72
DDD 622 2.88 4.67 6.76
DDD 623 4.38 4.97 7.33
DDD 624 4.85 4.47 4.86
DDD 625 5.39 4.49 3.51
DDD 626 4.92 3.29 2.70
DDD 627 4.91 2.18 3.22
DDD 628 6.93 4.52 3.54
DDD 629 7.50 4.72 2.15
DDD 630 7.43 5.66 4.43
DDD 631 5.03 3.66 5.42
DDD 632 5.10 5.33 3.05
DDD 633 7.27 3.65 3.91
DDD 634 8.34 5.25 2.20
DDD 635 7.68 3.83 1.73
DDD 636 6.83 5.22 1.59
DDD 637 6.92 6.49 4.21
DDD 638 7.28 5.42 5.39
DDD 639 8.40 5.80 4.27
DDD 640 4.53 3.54 1.45
DDD 641 4.04 2.49 0.57
DDD 642 5.01 2.26 -0.59
DDD 643 5.31 3.20 -1.32
DDD 644 2.65 2.82 0.04
DDD 645 1.62 2.96 1.11
DDD 646 1.42 4.10 1.97
DDD 647 0.67 2.05 1.47
DDD 648 0.37 3.86 2.83
DDD 649 -0.08 2.61 2.52
DDD 650 0.35 0.76 1.01
DDD 651 -1.14 1.93 3.13
DDD 652 -0.70 0.09 1.62
DDD 653 -1.43 0.68 2.66
DDD 654 4.55 4.47 1.09
DDD 655 3.96 1.63 1.09
DDD 656 2.37 2.09 -0.58
DDD 657 2.71 3.68 -0.47
DDD 658 1.97 4.93 1.94
DDD 659 0.02 4.48 3.53
DDD 660 0.87 0.34 0.27
DDD 661 -2.18 0.16 3.07
DDD 662 -1.66 2.35 3.87
DDD 663 -0.95 -0.83 1.31
DDD 664 5.46 1.02 -0.74
DDD 665 6.39 0.66 -1.81
DDD 666 5.91 -0.58 -2.56
DDD 667 5.43 -1.52 -1.93
DDD 668 7.80 0.43 -1.25
DDD 669 8.61 -0.22 -2.24
DDD 670 7.74 -0.46 -0.01
DDD 671 5.18 0.29 -0.11
DDD 672 6.45 1.42 -2.46
DDD 673 8.20 1.31 -1.00
DDD 674 8.02 -0.61 -2.95
DDD 675 7.33 0.05 0.75
DDD 676 7.18 -1.27 -0.21
DDD 677 8.66 -0.75 0.24
DDD 678 6.05 -0.55 -3.88
DDD 679 5.64 -1.67 -4.72
DDD 680 6.82 -2.24 -5.51
DDD 681 7.65 -1.47 -5.98
DDD 682 4.53 -1.24 -5.68
DDD 683 3.68 -2.38 -6.19
DDD 684 3.70 -2.74 -7.53
DDD 685 2.87 -3.10 -5.33
DDD 686 2.93 -3.78 -8.01
DDD 687 2.09 -4.15 -5.78
DDD 688 2.12 -4.49 -7.14
DDD 689 1.35 -5.53 -7.60
DDD 690 6.45 0.25 -4.34
DDD 691 5.26 -2.39 -4.15
DDD 692 4.95 -0.79 -6.47
DDD 693 3.93 -0.59 -5.21
DDD 694 4.28 -2.23 -8.17
DDD 695 2.85 -2.86 -4.36
DDD 696 2.95 -4.02 -8.98
DDD 697 1.51 -4.66 -5.15
DDD 698 1.28 -5.47 -8.60
DDD 699 6.86 -3.56 -5.63
DDD 700 7.93 -4.23 -6.35
DDD 701 7.40 -4.93 -7.60
DDD 702 6.90 -6.05 -7.50
DDD 703 8.64 -5.24 -5.45
DDD 704 9.76 -5.97 -6.16
DDD 705 10.46 -6.77 -5.50
DDD 706 9.94 -5.74 -7.38
DDD 707 6.15 -4.13 -5.22
DDD 708 8.62 -3.56 -6.63
DDD 709 7.97 -5.91 -5.14
DDD 710 9.02 -4.76 -4.66
DDD 711 7.52 -4.25 -8.74
DDD 712 7.05 -4.81 -10.01
DDD 713 7.77 -6.11 -10.34
DDD 714 7.18 -6.99 -10.96
DDD 715 7.26 -3.80 -11.14
DDD 716 6.43 -4.13 -12.37
DDD 717 6.04 -3.19 -13.09
DDD 718 6.17 -5.33 -12.60
DDD 719 7.94 -3.34 -8.76
DDD 720 6.07 -4.99 -9.95
DDD 721 8.22 -3.80 -11.40
DDD 722 7.00 -2.89 -10.81
DDD 723 9.03 -6.21 -9.91
DDD 724 9.83 -7.41 -10.16
DDD 725 9.28 -8.60 -9.39
DDD 726 9.85 -9.69 -9.49
DDD 727 11.28 -7.17 -9.79
DDD 728 9.46 -5.46 -9.41
DDD 729 9.81 -7.62 -11.14
DDD 730 11.68 -8.01 -9.42
DDD 731 11.79 -6.88 -10.60
DDD 732 11.33 -6.45 -9.10
DDD 733 8.20 -8.38 -8.65
DDD 734 7.58 -9.44 -7.87
DDD 735 6.06 -9.33 -7.89
DDD 736 5.38 -10.29 -7.51
DDD 737 8.09 -9.40 -6.41
DDD 738 9.52 -9.34 -6.40
DDD 739 7.64 -10.65 -5.66
DDD 740 7.79 -7.47 -8.61
DDD 741 7.85 -10.33 -8.24
DDD 742 7.70 -8.60 -5.96
DDD 743 9.81 -8.40 -6.22
DDD 744 7.96 -10.59 -4.71
DDD 745 6.64 -10.71 -5.68
DDD 746 8.04 -11.46 -6.09
DDD 747 5.57 -8.18 -8.34
DDD 748 4.13 -7.95 -8.42
DDD 749 3.48 -8.03 -7.04
DDD 750 2.41 -8.62 -6.91
DDD 751 3.47 -8.96 -9.36
DDD 752 3.91 -8.83 -10.81
DDD 753 5.39 -9.13 -10.96
DDD 754 5.78 -9.26 -12.43
DDD 755 5.61 -7.98 -13.17
DDD 756 6.17 -7.45 -8.63
DDD 757 3.96 -7.04 -8.80
DDD 758 2.48 -8.83 -9.32
DDD 759 3.70 -9.88 -9.04
DDD 760 3.73 -7.90 -11.12
DDD 761 3.39 -9.48 -11.37
DDD 762 5.61 -9.98 -10.49
DDD 763 5.92 -8.38 -10.56
DDD 764 5.20 -9.95 -12.85
DDD 765 6.73 -9.55 -12.48
DDD 766 4.82 -8.04 -13.77
DDD 767 5.48 -7.23 -12.51
DDD 768 6.44 -7.79 -13.71
DDD 769 4.14 -7.44 -6.04
DDD 770 3.63 -7.44 -4.68
DDD 771 3.77 -6.07 -4.04
DDD 772 4.75 -5.37 -4.31
DDD 773 4.37 -8.50 -3.83
DDD 774 4.23 -9.79 -4.43
DDD 775 3.79 -8.55 -2.42
DDD 776 5.01 -6.98 -6.22
DDD 777 2.67 -7.70 -4.68
DDD 778 5.34 -8.25 -3.78
DDD 779 3.92 -9.68 -5.38
DDD 780 2.80 -8.62 -2.47
DDD 781 4.16 -9.34 -1.94
DDD 782 4.04 -7.71 -1.93
DDD 783 2.80 -5.71 -3.20
DDD 784 2.82 -4.42 -2.52
DDD 785 3.17 -4.58 -1.04
DDD 786 2.75 -5.56 -0.42
DDD 787 1.46 -3.73 -2.66
DDD 788 1.53 -2.24 -2.49
DDD 789 1.18 -1.39 -3.53
DDD 790 1.93 -1.68 -1.29
DDD 791 1.24 -0.02 -3.38
DDD 792 1.99 -0.30 -1.14
DDD 793 1.65 0.52 -2.18
DDD 794 2.04 -6.33 -3.01
DDD 795 3.50 -3.83 -2.94
DDD 796 0.84 -4.10 -1.96
DDD 797 1.10 -3.93 -3.57
DDD 798 0.88 -1.78 -4.41
DDD 799 2.18 -2.27 -0.53
DDD 800 0.99 0.58 -4.14
DDD 801 2.29 0.09 -0.27
DDD 802 1.69 1.52 -2.07
DDD 803 3.92 -3.63 -0.51
DDD 804 4.32 -3.66 0.89
DDD 805 4.29 -2.26 1.51
DDD 806 4.69 -1.30 0.85
DDD 807 5.73 -4.26 1.03
DDD 808 5.86 -5.39 0.16
DDD 809 5.98 -4.71 2.47
DDD 810 4.22 -2.85 -1.06
DDD 811 3.70 -4.25 1.41
DDD 812 6.41 -3.56 0.79
DDD 813 6.83 -5.55 -0.04
DDD 814 6.92 -4.49 2.73
DDD 815 5.35 -4.24 3.08
DDD 816 5.84 -5.69 2.53
DDD 817 3.81 -2.18 2.75
DDD 818 3.72 -0.91 3.45
DDD 819 4.53 -0.94 4.75
DDD 820 4.25 -1.77 5.61
DDD 821 2.26 -0.55 3.75
DDD 822 2.09 0.95 3.92
DDD 823 1.36 -1.01 2.61
DDD 824 3.50 -3.00 3.23
DDD 825 4.09 -0.18 2.87
DDD 826 1.97 -1.01 4.59
DDD 827 2.17 1.19 4.89
DDD 828 2.81 1.42 3.40
DDD 829 1.20 1.23 3.58
DDD 830 0.58 -0.38 2.52
DDD 831 1.88 -1.01 1.76
DDD 832 1.02 -1.93 2.80
DDD 833 5.50 -0.04 4.86
DDD 834 6.34 0.04 6.05
DDD 835 6.65 1.49 6.41
DDD 836 6.58 2.36 5.54
DDD 837 7.65 -0.74 5.84
DDD 838 7.38 -1.93 5.08
DDD 839 8.25 -1.14 7.17
DDD 840 5.68 0.62 4.12
DDD 841 5.86 -0.38 6.82
DDD 842 8.29 -0.16 5.35
DDD 843 6.42 -2.19 5.19
DDD 844 8.55 -0.32 7.66
DDD 845 7.57 -1.62 7.72
DDD 846 9.04 -1.74 7.02
DDD 847 6.99 1.72 7.67
DDD 848 7.31 3.06 8.15
DDD 849 8.70 3.49 7.68
DDD 850 9.44 2.61 7.25
DDD 851 7.24 3.12 9.67
DDD 852 5.85 3.43 10.21
DDD 853 4.78 2.55 9.60
DDD 854 3.91 2.05 10.35
DDD 855 4.80 2.35 8.37
DDD 856 7.03 0.97 8.33
DDD 857 6.64 3.71 7.79
DDD 858 7.86 3.84 9.99
DDD 859 7.53 2.24 10.04
DDD 860 5.63 4.38 10.01
DDD 861 5.85 3.29 11.20
DDD 862 8.97 4.69 7.76
END

EOF
